; benchmark generated from python API
(set-info :status unknown)
(declare-fun x_days () Int)
(assert
 (>= x_days (- 36584)))
(assert
 (<= x_days 36829))
(assert
 (>= x_days 8341))
(assert
 (<= x_days 8705))
(assert
 (let ((?x3260 (+ x_days 730179)))
(let ((?x451 (mod ?x3260 146097)))
(let ((?x200 (div ?x451 36524)))
(let ((?x392 (ite (<= 4 ?x200) 3 ?x200)))
(let ((?x489 (- ?x451 (* ?x392 36524))))
(let ((?x45 (mod ?x489 1461)))
(let ((?x568 (div ?x45 365)))
(let ((?x779 (ite (<= 4 ?x568) 3 ?x568)))
(let ((?x668 (+ (+ (* (div ?x3260 146097) 400) (* ?x392 100)) (* (div ?x489 1461) 4))))
(let ((?x527 (+ (+ ?x668 ?x779) 1)))
(let (($x228 (or (and (= (mod ?x527 4) 0) (and (distinct (mod ?x527 100) 0) true)) (= (mod ?x527 400) 0))))
(let ((?x674 (- ?x45 (* ?x779 365))))
(let ((?x2560 (ite $x228 31 31)))
(let (($x250 (>= ?x674 ?x2560)))
(let ((?x695 (ite $x250 (+ (- ?x674 ?x2560) 1) (+ (- ?x674 (ite $x228 0 0)) 1))))
(let ((?x134 (ite $x228 60 59)))
(let (($x285 (>= ?x674 ?x134)))
(let ((?x2676 (ite $x228 91 90)))
(let (($x2879 (>= ?x674 ?x2676)))
(let ((?x3175 (ite $x2879 (+ (- ?x674 ?x2676) 1) (ite $x285 (+ (- ?x674 ?x134) 1) ?x695))))
(let ((?x32 (ite $x228 121 120)))
(let (($x2625 (>= ?x674 ?x32)))
(let ((?x346 (ite $x228 152 151)))
(let (($x651 (>= ?x674 ?x346)))
(let ((?x2656 (ite $x651 (+ (- ?x674 ?x346) 1) (ite $x2625 (+ (- ?x674 ?x32) 1) ?x3175))))
(let ((?x634 (ite $x228 182 181)))
(let (($x457 (>= ?x674 ?x634)))
(let ((?x519 (ite $x228 213 212)))
(let (($x836 (>= ?x674 ?x519)))
(let ((?x9 (ite $x836 (+ (- ?x674 ?x519) 1) (ite $x457 (+ (- ?x674 ?x634) 1) ?x2656))))
(let ((?x2550 (ite $x228 244 243)))
(let (($x3296 (>= ?x674 ?x2550)))
(let ((?x16 (ite $x228 274 273)))
(let (($x2638 (>= ?x674 ?x16)))
(let ((?x817 (ite $x2638 (+ (- ?x674 ?x16) 1) (ite $x3296 (+ (- ?x674 ?x2550) 1) ?x9))))
(let ((?x1830 (ite $x228 305 304)))
(let (($x652 (>= ?x674 ?x1830)))
(let ((?x3127 (ite $x228 335 334)))
(let (($x3123 (>= ?x674 ?x3127)))
(let ((?x732 (ite $x3123 (+ (- ?x674 ?x3127) 1) (ite $x652 (+ (- ?x674 ?x1830) 1) ?x817))))
(let ((?x3273 (ite $x2625 5 (ite $x2879 4 (ite $x285 3 (ite $x250 2 1))))))
(let ((?x2389 (ite $x3296 9 (ite $x836 8 (ite $x457 7 (ite $x651 6 ?x3273))))))
(let ((?x170 (+ (ite $x3123 12 (ite $x652 11 (ite $x2638 10 ?x2389))) (+ (* 0 12) 2))))
(let ((?x42 (- ?x170 1)))
(let ((?x442 (+ (mod ?x42 12) 1)))
(let ((?x661 (ite (or (= ?x442 4) (= ?x442 6) (= ?x442 9) (= ?x442 11)) 30 31)))
(let (($x599 (and (= (mod (+ ?x527 (+ 0 (div ?x42 12))) 4) 0) (and (distinct (mod (+ ?x527 (+ 0 (div ?x42 12))) 100) 0) true))))
(let (($x437 (or $x599 (= (mod (+ ?x527 (+ 0 (div ?x42 12))) 400) 0))))
(let ((?x326 (ite (= ?x442 2) (ite $x437 29 28) ?x661)))
(let ((?x1673 (ite (> 1 ?x732) 1 (ite (> ?x732 ?x326) ?x326 ?x732))))
(let ((?x812 (ite (> 1 ?x1673) 1 (ite (> ?x1673 ?x326) ?x326 ?x1673))))
(let ((?x267 (ite (= 2 ?x442) (ite $x437 31 31) (ite (= 1 ?x442) (ite $x437 0 0) 0))))
(let ((?x3286 (ite (= 4 ?x442) (ite $x437 91 90) (ite (= 3 ?x442) (ite $x437 60 59) ?x267))))
(let ((?x1199 (ite (= 6 ?x442) (ite $x437 152 151) (ite (= 5 ?x442) (ite $x437 121 120) ?x3286))))
(let ((?x1437 (ite (= 8 ?x442) (ite $x437 213 212) (ite (= 7 ?x442) (ite $x437 182 181) ?x1199))))
(let ((?x3001 (ite (= 10 ?x442) (ite $x437 274 273) (ite (= 9 ?x442) (ite $x437 244 243) ?x1437))))
(let ((?x1005 (ite (= 12 ?x442) (ite $x437 335 334) (ite (= 11 ?x442) (ite $x437 305 304) ?x3001))))
(let ((?x1471 (+ (* 365 (- (+ ?x527 (+ 0 (div ?x42 12))) 1)) (div (- (+ ?x527 (+ 0 (div ?x42 12))) 1) 4))))
(let ((?x1640 (+ (- ?x1471 (div (- (+ ?x527 (+ 0 (div ?x42 12))) 1) 100)) (div (- (+ ?x527 (+ 0 (div ?x42 12))) 1) 400))))
(let ((?x1430 (+ (+ (- (+ (+ ?x1640 ?x1005) (- ?x812 1)) 730179) 0) 730179)))
(let ((?x1455 (mod ?x1430 146097)))
(let ((?x2841 (div ?x1455 36524)))
(let ((?x2965 (ite (<= 4 ?x2841) 3 ?x2841)))
(let ((?x3256 (- ?x1455 (* ?x2965 36524))))
(let ((?x3161 (mod ?x3256 1461)))
(let ((?x2351 (div ?x3161 365)))
(let ((?x918 (ite (<= 4 ?x2351) 3 ?x2351)))
(let ((?x2420 (+ (+ (* (div ?x1430 146097) 400) (* ?x2965 100)) (* (div ?x3256 1461) 4))))
(let ((?x2422 (+ (+ ?x2420 ?x918) 1)))
(let (($x1512 (or (and (= (mod ?x2422 4) 0) (and (distinct (mod ?x2422 100) 0) true)) (= (mod ?x2422 400) 0))))
(let ((?x996 (- ?x3161 (* ?x918 365))))
(let ((?x325 (ite $x1512 31 31)))
(let (($x1837 (>= ?x996 ?x325)))
(let ((?x154 (ite $x1837 (+ (- ?x996 ?x325) 1) (+ (- ?x996 (ite $x1512 0 0)) 1))))
(let ((?x2874 (ite $x1512 60 59)))
(let (($x2242 (>= ?x996 ?x2874)))
(let ((?x1738 (ite $x1512 91 90)))
(let (($x2977 (>= ?x996 ?x1738)))
(let ((?x1218 (ite $x2977 (+ (- ?x996 ?x1738) 1) (ite $x2242 (+ (- ?x996 ?x2874) 1) ?x154))))
(let ((?x3265 (ite $x1512 121 120)))
(let (($x251 (>= ?x996 ?x3265)))
(let ((?x3237 (ite $x1512 152 151)))
(let (($x821 (>= ?x996 ?x3237)))
(let ((?x2515 (ite $x821 (+ (- ?x996 ?x3237) 1) (ite $x251 (+ (- ?x996 ?x3265) 1) ?x1218))))
(let ((?x1222 (ite $x1512 182 181)))
(let (($x328 (>= ?x996 ?x1222)))
(let ((?x2513 (ite $x1512 213 212)))
(let (($x2838 (>= ?x996 ?x2513)))
(let ((?x2059 (ite $x2838 (+ (- ?x996 ?x2513) 1) (ite $x328 (+ (- ?x996 ?x1222) 1) ?x2515))))
(let ((?x2341 (ite $x1512 244 243)))
(let (($x1426 (>= ?x996 ?x2341)))
(let ((?x1725 (ite $x1512 274 273)))
(let (($x1633 (>= ?x996 ?x1725)))
(let ((?x19 (ite $x1633 (+ (- ?x996 ?x1725) 1) (ite $x1426 (+ (- ?x996 ?x2341) 1) ?x2059))))
(let ((?x1209 (ite $x1512 305 304)))
(let (($x287 (>= ?x996 ?x1209)))
(let ((?x3101 (ite $x1512 335 334)))
(let (($x619 (>= ?x996 ?x3101)))
(let ((?x739 (ite $x619 (+ (- ?x996 ?x3101) 1) (ite $x287 (+ (- ?x996 ?x1209) 1) ?x19))))
(let (($x798 (= 0 0)))
(let (($x705 (= (mod (ite $x798 (+ ?x527 (+ 0 (div ?x42 12))) ?x2422) 400) 0)))
(let (($x412 (and (distinct (mod (ite $x798 (+ ?x527 (+ 0 (div ?x42 12))) ?x2422) 100) 0) true)))
(let (($x1054 (= (mod (ite $x798 (+ ?x527 (+ 0 (div ?x42 12))) ?x2422) 4) 0)))
(let (($x360 (or (and $x1054 $x412) $x705)))
(let ((?x334 (ite $x251 5 (ite $x2977 4 (ite $x2242 3 (ite $x1837 2 1))))))
(let ((?x2046 (ite $x1426 9 (ite $x2838 8 (ite $x328 7 (ite $x821 6 ?x334))))))
(let ((?x264 (ite $x798 ?x442 (ite $x619 12 (ite $x287 11 (ite $x1633 10 ?x2046))))))
(let ((?x1568 (ite (= 2 ?x264) (ite $x360 31 31) (ite (= 1 ?x264) (ite $x360 0 0) 0))))
(let ((?x515 (ite (= 4 ?x264) (ite $x360 91 90) (ite (= 3 ?x264) (ite $x360 60 59) ?x1568))))
(let ((?x573 (ite (= 6 ?x264) (ite $x360 152 151) (ite (= 5 ?x264) (ite $x360 121 120) ?x515))))
(let ((?x370 (ite (= 8 ?x264) (ite $x360 213 212) (ite (= 7 ?x264) (ite $x360 182 181) ?x573))))
(let ((?x12 (ite (= 10 ?x264) (ite $x360 274 273) (ite (= 9 ?x264) (ite $x360 244 243) ?x370))))
(let ((?x258 (ite (= 12 ?x264) (ite $x360 335 334) (ite (= 11 ?x264) (ite $x360 305 304) ?x12))))
(let ((?x940 (+ ?x527 (+ 0 (div ?x42 12)))))
(let ((?x361 (ite $x798 ?x940 ?x2422)))
(let ((?x795 (- ?x361 1)))
(let ((?x1918 (+ (- (+ (* 365 ?x795) (div ?x795 4)) (div ?x795 100)) (div ?x795 400))))
(= (- (+ (+ ?x1918 ?x258) (- (ite $x798 ?x812 ?x739) 1)) 730179) (+ x_days 61))))))))))))))))))))))))))))))))))))))))))))))))))))))))))))))))))))))))))))))))))))))))))))))))))))))))))))))))))))))))
(check-sat)
